p wcnf 120 1400
3 -116 -120 0
4 -116 -118 0
3 -115 -116 0
4 -111 113 0
5 -108 118 0
4 -107 -120 0
9 -107 -116 0
10 -107 117 0
7 -106 -116 0
5 -105 111 0
3 -104 -113 0
6 -103 -112 0
7 -103 116 0
3 -101 106 0
5 -101 118 0
4 -100 -111 0
1 -100 101 0
10 -99 100 0
4 -99 116 0
9 -98 100 0
8 -97 -112 0
8 -97 99 0
5 -96 -116 0
5 -96 104 0
4 -95 -101 0
9 -95 -99 0
7 -95 -96 0
7 -95 103 0
6 -94 -96 0
5 -93 -114 0
9 -93 -113 0
8 -93 -111 0
8 -93 -102 0
2 -92 108 0
2 -91 101 0
3 -91 104 0
5 -91 111 0
1 -91 116 0
3 -89 -115 0
2 -89 -92 0
5 -89 107 0
5 -88 -112 0
7 -88 -105 0
2 -88 94 0
8 -88 110 0
2 -87 -114 0
5 -87 92 0
8 -87 109 0
2 -87 118 0
8 -87 120 0
6 -86 -119 0
9 -86 -115 0
6 -86 -112 0
1 -86 -92 0
3 -86 -88 0
8 -86 91 0
9 -86 116 0
10 -85 -111 0
5 -85 94 0
5 -85 111 0
5 -84 -113 0
5 -84 -110 0
3 -84 -105 0
3 -84 -90 0
6 -83 -105 0
4 -83 -103 0
5 -83 93 0
10 -82 -119 0
5 -81 -114 0
7 -81 -107 0
2 -81 -101 0
9 -81 113 0
2 -80 81 0
7 -80 87 0
1 -79 -82 0
9 -79 86 0
9 -79 95 0
5 -78 -82 0
6 -77 -88 0
10 -77 85 0
3 -77 100 0
2 -76 -113 0
8 -76 93 0
8 -76 119 0
3 -75 -77 0
1 -75 94 0
6 -75 99 0
1 -74 -100 0
1 -74 -95 0
1 -74 82 0
5 -74 84 0
5 -73 -108 0
5 -73 -85 0
7 -73 101 0
7 -73 105 0
10 -72 -110 0
1 -72 -80 0
3 -72 74 0
9 -72 94 0
5 -71 -104 0
9 -71 -99 0
1 -71 -96 0
4 -71 -76 0
1 -71 85 0
8 -71 89 0
4 -71 108 0
9 -71 112 0
6 -70 -107 0
8 -70 -92 0
5 -70 -78 0
6 -70 96 0
1 -70 103 0
7 -70 104 0
4 -70 107 0
8 -69 -113 0
8 -69 -102 0
4 -69 -70 0
4 -69 89 0
9 -68 -120 0
4 -68 -107 0
4 -68 -93 0
4 -68 91 0
8 -67 -107 0
8 -67 -75 0
10 -66 -118 0
6 -66 -80 0
7 -66 75 0
10 -66 86 0
8 -66 94 0
7 -66 101 0
5 -66 117 0
6 -65 -116 0
7 -65 -104 0
7 -65 -96 0
6 -65 -70 0
4 -65 -69 0
1 -65 -68 0
5 -65 68 0
9 -65 85 0
8 -65 95 0
9 -65 109 0
5 -65 111 0
8 -64 -112 0
6 -64 -100 0
8 -64 -74 0
6 -64 82 0
4 -64 88 0
2 -64 96 0
9 -64 112 0
3 -64 114 0
6 -63 -108 0
3 -63 -82 0
6 -63 73 0
4 -63 89 0
10 -62 -105 0
5 -62 -102 0
9 -62 -85 0
7 -62 63 0
5 -62 118 0
7 -61 -87 0
4 -61 -86 0
9 -61 -78 0
3 -61 -71 0
10 -61 -62 0
6 -61 79 0
8 -61 94 0
4 -61 106 0
6 -61 117 0
3 -60 -93 0
4 -60 -72 0
5 -60 66 0
3 -60 74 0
8 -60 79 0
3 -60 97 0
8 -59 -107 0
6 -59 -91 0
9 -59 64 0
2 -59 70 0
7 -59 108 0
8 -58 -102 0
3 -58 -100 0
3 -58 -78 0
10 -58 -72 0
8 -58 -67 0
6 -58 62 0
10 -58 117 0
3 -57 -99 0
5 -57 -93 0
7 -57 83 0
7 -57 93 0
2 -57 96 0
1 -57 110 0
6 -57 115 0
4 -56 -115 0
1 -56 -110 0
2 -56 -108 0
2 -56 -107 0
4 -56 -102 0
8 -56 -70 0
4 -56 -65 0
7 -56 57 0
3 -56 58 0
6 -56 61 0
5 -56 95 0
5 -56 97 0
4 -55 -96 0
1 -55 -75 0
3 -55 -70 0
4 -55 71 0
8 -55 77 0
1 -55 78 0
7 -54 -118 0
10 -54 -71 0
10 -54 69 0
5 -53 -95 0
6 -53 -94 0
10 -53 -58 0
7 -53 57 0
2 -53 75 0
7 -53 83 0
4 -52 -109 0
3 -52 -84 0
7 -52 -79 0
9 -52 -75 0
5 -52 85 0
7 -52 107 0
2 -52 110 0
6 -52 116 0
1 -51 -117 0
9 -51 -85 0
10 -51 -60 0
7 -51 59 0
1 -51 60 0
6 -51 110 0
3 -51 114 0
5 -51 116 0
8 -50 -70 0
3 -50 -69 0
7 -50 -61 0
3 -50 58 0
10 -50 105 0
7 -50 112 0
8 -49 -88 0
10 -49 -86 0
7 -49 -76 0
3 -49 60 0
6 -49 76 0
7 -49 108 0
9 -49 111 0
7 -48 -87 0
4 -48 -75 0
3 -48 -71 0
8 -48 -70 0
9 -48 55 0
2 -48 79 0
4 -48 87 0
6 -48 115 0
3 -47 -98 0
9 -47 -87 0
6 -47 56 0
2 -47 70 0
9 -47 102 0
4 -46 -107 0
2 -46 -105 0
4 -46 -86 0
5 -46 -72 0
6 -46 -56 0
3 -46 58 0
7 -45 -112 0
3 -45 -99 0
4 -45 -88 0
7 -45 -77 0
9 -45 -65 0
3 -45 46 0
6 -45 50 0
7 -45 59 0
4 -45 81 0
2 -45 90 0
4 -45 100 0
3 -45 117 0
8 -45 119 0
6 -44 -85 0
5 -44 -81 0
6 -44 -45 0
5 -44 51 0
6 -44 55 0
9 -44 62 0
2 -44 77 0
8 -44 78 0
8 -44 88 0
7 -44 109 0
8 -44 117 0
6 -43 -112 0
9 -43 -83 0
9 -43 -81 0
10 -43 -78 0
5 -43 -70 0
5 -43 65 0
3 -43 73 0
2 -43 91 0
7 -43 103 0
6 -43 117 0
8 -42 -114 0
6 -42 -100 0
8 -42 -76 0
4 -42 56 0
3 -42 114 0
2 -41 -108 0
6 -41 -106 0
5 -41 -69 0
4 -41 -60 0
4 -41 -50 0
1 -41 67 0
8 -41 98 0
9 -41 110 0
6 -40 -104 0
4 -40 -101 0
7 -40 -62 0
6 -40 -60 0
2 -40 -47 0
5 -40 -41 0
3 -40 46 0
9 -40 57 0
1 -40 67 0
2 -40 82 0
8 -40 93 0
1 -40 94 0
6 -40 96 0
3 -40 112 0
3 -40 113 0
7 -39 -108 0
8 -39 -104 0
8 -39 -60 0
5 -39 65 0
4 -39 120 0
5 -38 -112 0
9 -38 -111 0
6 -38 -102 0
6 -38 -97 0
4 -38 -50 0
10 -38 -40 0
9 -38 63 0
7 -38 84 0
1 -38 100 0
7 -38 106 0
6 -37 -111 0
6 -37 -81 0
1 -37 -66 0
3 -37 -46 0
2 -37 76 0
2 -37 78 0
7 -37 79 0
4 -37 81 0
10 -37 83 0
7 -37 85 0
5 -37 89 0
8 -37 99 0
7 -37 107 0
2 -36 -115 0
10 -36 -79 0
9 -36 -75 0
8 -36 -71 0
8 -36 -48 0
7 -36 47 0
3 -36 64 0
3 -36 65 0
2 -36 73 0
2 -36 97 0
8 -35 -119 0
7 -35 -69 0
5 -35 -55 0
8 -35 -52 0
6 -35 -38 0
2 -35 74 0
8 -35 81 0
3 -35 106 0
6 -34 -105 0
4 -34 -42 0
3 -34 79 0
8 -34 103 0
5 -34 114 0
4 -33 -84 0
5 -33 35 0
8 -33 64 0
4 -33 107 0
2 -33 108 0
3 -33 117 0
2 -33 118 0
9 -32 -115 0
4 -32 -112 0
2 -32 -88 0
8 -32 -80 0
2 -32 -75 0
10 -32 -61 0
4 -32 -55 0
4 -32 44 0
2 -32 104 0
5 -31 -120 0
5 -31 -110 0
9 -31 -99 0
1 -31 -38 0
9 -31 -36 0
7 -31 55 0
6 -31 63 0
10 -31 65 0
4 -31 77 0
8 -31 78 0
6 -31 87 0
7 -31 120 0
2 -30 -114 0
5 -30 -84 0
2 -30 -81 0
5 -30 -80 0
9 -30 -63 0
8 -30 -51 0
8 -30 -38 0
10 -30 49 0
2 -30 52 0
9 -30 89 0
8 -30 98 0
5 -29 -81 0
1 -29 -74 0
6 -29 54 0
5 -29 96 0
10 -28 -118 0
9 -28 -104 0
8 -28 -82 0
2 -28 -78 0
4 -28 -46 0
3 -28 34 0
1 -28 37 0
4 -28 95 0
2 -27 -114 0
7 -27 -106 0
9 -27 -104 0
2 -27 -51 0
1 -27 -43 0
8 -27 32 0
7 -27 50 0
7 -27 58 0
8 -27 67 0
1 -27 73 0
8 -27 80 0
3 -27 91 0
9 -27 94 0
7 -27 106 0
1 -27 110 0
9 -26 -72 0
7 -26 -54 0
9 -26 -49 0
7 -26 -46 0
2 -26 -44 0
9 -26 -29 0
3 -26 37 0
6 -26 56 0
9 -26 76 0
2 -26 108 0
4 -26 118 0
2 -25 -99 0
5 -25 -46 0
6 -25 -41 0
2 -25 -38 0
8 -25 94 0
7 -24 -90 0
8 -24 -81 0
7 -24 -73 0
8 -24 -34 0
8 -24 -32 0
5 -24 30 0
5 -24 31 0
5 -24 41 0
4 -24 73 0
5 -24 87 0
3 -24 112 0
6 -23 -116 0
4 -23 -71 0
9 -23 57 0
6 -23 75 0
3 -23 85 0
6 -23 120 0
5 -22 -101 0
9 -22 -98 0
7 -22 -85 0
5 -22 -83 0
2 -22 -34 0
3 -22 41 0
4 -22 47 0
3 -22 60 0
6 -22 63 0
4 -22 97 0
7 -22 112 0
2 -22 114 0
5 -22 117 0
5 -22 118 0
9 -21 -95 0
3 -21 -33 0
3 -21 52 0
7 -21 57 0
10 -21 63 0
7 -21 66 0
1 -21 69 0
5 -21 108 0
10 -20 -99 0
5 -20 -93 0
7 -20 -69 0
6 -20 -65 0
8 -20 -37 0
6 -20 -32 0
2 -20 -27 0
1 -20 46 0
2 -20 75 0
6 -20 106 0
9 -19 -117 0
8 -19 -96 0
9 -19 -95 0
1 -19 -64 0
9 -19 -21 0
3 -19 39 0
4 -19 76 0
5 -19 83 0
7 -19 102 0
1 -19 116 0
7 -18 -113 0
2 -18 -109 0
5 -18 -79 0
6 -18 -41 0
4 -18 -39 0
7 -18 -37 0
2 -18 -31 0
3 -18 36 0
4 -18 47 0
2 -18 90 0
7 -18 102 0
4 -18 108 0
7 -18 110 0
4 -18 115 0
8 -18 119 0
5 -17 -67 0
9 -17 -66 0
9 -17 -26 0
5 -17 -23 0
1 -17 -22 0
5 -17 33 0
4 -17 34 0
8 -17 42 0
4 -17 53 0
5 -17 59 0
8 -17 105 0
6 -16 -86 0
7 -16 -81 0
3 -16 -72 0
3 -16 -59 0
7 -16 -42 0
9 -16 -33 0
4 -16 26 0
3 -16 32 0
4 -16 60 0
6 -16 109 0
9 -16 111 0
5 -15 -120 0
8 -15 -118 0
3 -15 -116 0
7 -15 -112 0
5 -15 -97 0
6 -15 -91 0
3 -15 -63 0
9 -15 -59 0
4 -15 -48 0
7 -15 26 0
8 -15 33 0
3 -15 60 0
2 -15 80 0
8 -15 94 0
7 -14 -112 0
5 -14 -106 0
7 -14 -103 0
10 -14 -87 0
9 -14 -57 0
4 -14 -46 0
6 -14 -37 0
6 -14 -28 0
6 -14 -27 0
8 -14 -26 0
3 -14 55 0
5 -14 78 0
2 -14 113 0
5 -13 -108 0
9 -13 -50 0
7 -13 -40 0
4 -13 -17 0
4 -13 40 0
5 -13 112 0
6 -13 119 0
10 -12 -113 0
10 -12 -67 0
1 -12 -60 0
3 -12 -56 0
9 -12 -27 0
4 -12 20 0
9 -12 34 0
7 -12 72 0
7 -12 119 0
1 -11 -92 0
5 -11 -75 0
3 -11 -59 0
6 -11 -55 0
2 -11 -37 0
3 -11 -36 0
5 -11 -33 0
5 -11 -18 0
8 -11 -12 0
10 -11 37 0
1 -11 48 0
7 -11 62 0
3 -11 120 0
5 -10 -98 0
7 -10 -83 0
7 -10 -72 0
4 -10 -17 0
4 -10 -16 0
10 -10 -12 0
7 -10 19 0
9 -10 90 0
6 -10 96 0
7 -10 105 0
9 -9 -118 0
6 -9 -114 0
9 -9 -78 0
7 -9 -76 0
9 -9 -55 0
8 -9 -54 0
4 -9 -45 0
6 -9 -35 0
9 -9 -13 0
8 -9 25 0
8 -9 40 0
4 -9 62 0
9 -9 70 0
2 -9 86 0
8 -9 112 0
4 -8 -112 0
9 -8 -108 0
8 -8 -107 0
5 -8 -99 0
6 -8 -88 0
10 -8 -80 0
9 -8 84 0
3 -8 103 0
7 -7 -114 0
3 -7 -111 0
6 -7 -101 0
7 -7 -71 0
9 -7 -30 0
5 -7 8 0
3 -7 10 0
6 -7 41 0
4 -7 61 0
8 -7 77 0
5 -7 94 0
1 -7 104 0
7 -6 -108 0
3 -6 -27 0
4 -6 -7 0
3 -6 20 0
1 -6 23 0
3 -6 24 0
10 -6 104 0
5 -6 105 0
2 -5 -108 0
1 -5 -103 0
3 -5 -89 0
5 -5 -76 0
9 -5 -42 0
9 -5 -17 0
9 -5 16 0
5 -5 50 0
9 -5 92 0
8 -4 -119 0
7 -4 -118 0
7 -4 -100 0
1 -4 -95 0
3 -4 -61 0
4 -4 -24 0
9 -4 -18 0
7 -4 12 0
5 -4 31 0
5 -4 54 0
10 -4 106 0
3 -4 109 0
8 -3 -120 0
10 -3 -119 0
9 -3 -118 0
1 -3 -117 0
4 -3 -114 0
1 -3 -56 0
1 -3 -45 0
6 -3 -43 0
1 -3 -34 0
5 -3 -25 0
7 -3 -24 0
1 -3 -23 0
7 -3 41 0
2 -3 53 0
10 -3 54 0
6 -3 67 0
1 -3 97 0
5 -3 101 0
6 -3 107 0
8 -2 -105 0
2 -2 -99 0
2 -2 -64 0
8 -2 16 0
4 -2 53 0
5 -2 85 0
7 -2 109 0
10 -2 112 0
9 -2 114 0
2 -1 -76 0
10 -1 -71 0
2 -1 -67 0
9 -1 -22 0
10 -1 -13 0
9 -1 16 0
9 -1 22 0
4 -1 30 0
9 -1 37 0
10 -1 46 0
9 -1 63 0
9 1 -109 0
5 1 -33 0
5 1 -25 0
10 1 5 0
2 1 70 0
7 1 75 0
10 1 84 0
7 1 90 0
7 2 -89 0
5 2 -57 0
2 2 -53 0
5 2 -46 0
6 2 -40 0
3 2 -31 0
3 2 -17 0
9 2 -10 0
7 2 -6 0
9 2 20 0
8 2 46 0
6 2 75 0
10 2 85 0
8 2 91 0
7 2 119 0
9 3 -120 0
8 3 -110 0
6 3 -66 0
9 3 28 0
1 3 29 0
5 3 31 0
9 3 97 0
9 3 115 0
5 4 -115 0
3 4 -80 0
4 4 -36 0
4 4 -30 0
4 4 -22 0
1 4 13 0
4 4 71 0
10 4 87 0
7 5 -115 0
8 5 -107 0
2 5 -91 0
1 5 -56 0
4 5 -55 0
4 5 -51 0
3 5 -32 0
2 5 6 0
1 5 16 0
2 5 31 0
10 5 37 0
6 5 45 0
2 5 52 0
8 5 94 0
3 5 100 0
2 5 107 0
5 6 -106 0
7 6 -95 0
9 6 -58 0
6 6 -48 0
2 6 19 0
8 6 67 0
5 6 90 0
6 6 102 0
1 6 119 0
8 7 -105 0
9 7 -101 0
5 7 -89 0
8 7 -74 0
4 7 -54 0
4 7 -31 0
5 7 -17 0
2 7 8 0
6 7 21 0
5 7 28 0
4 7 58 0
9 7 72 0
8 7 76 0
6 7 80 0
9 7 90 0
9 7 120 0
5 8 -110 0
5 8 -71 0
1 8 -57 0
3 8 -16 0
7 8 -11 0
2 8 30 0
8 8 31 0
4 8 47 0
2 8 52 0
4 8 74 0
6 8 119 0
9 9 -99 0
7 9 -62 0
2 9 -60 0
9 9 -41 0
6 9 -38 0
1 9 -37 0
4 9 -31 0
4 9 81 0
4 9 93 0
7 9 104 0
8 9 106 0
5 9 116 0
3 10 -114 0
3 10 -86 0
8 10 -65 0
2 10 -40 0
1 10 -39 0
4 10 -27 0
10 10 53 0
9 10 75 0
8 10 112 0
5 10 114 0
10 10 118 0
1 11 -117 0
2 11 -103 0
2 11 -65 0
8 11 -58 0
5 11 -17 0
3 11 29 0
2 11 47 0
1 11 50 0
1 11 52 0
8 11 68 0
2 11 79 0
9 11 104 0
4 11 110 0
2 12 -119 0
3 12 -102 0
7 12 -98 0
5 12 -81 0
9 12 -79 0
5 12 -14 0
9 12 38 0
2 12 64 0
7 12 73 0
7 12 74 0
2 12 98 0
7 12 106 0
9 13 -118 0
2 13 -113 0
7 13 -63 0
8 13 24 0
6 13 34 0
7 13 47 0
8 13 59 0
7 13 109 0
8 14 -112 0
6 14 -70 0
2 14 -39 0
9 14 36 0
6 14 66 0
3 14 72 0
10 14 107 0
4 15 -104 0
4 15 -102 0
9 15 -95 0
7 15 -94 0
5 15 -69 0
2 15 -61 0
4 15 -34 0
9 15 28 0
1 15 53 0
7 15 63 0
8 15 112 0
2 15 115 0
4 16 -89 0
4 16 -18 0
3 16 17 0
2 16 67 0
4 16 73 0
4 16 96 0
7 16 116 0
1 17 -117 0
9 17 -51 0
4 17 -46 0
8 17 -28 0
6 17 25 0
2 17 34 0
4 17 70 0
7 17 92 0
2 17 103 0
9 18 -96 0
8 18 -90 0
1 18 -86 0
4 18 -84 0
2 18 -73 0
9 18 31 0
10 18 67 0
6 18 92 0
1 18 112 0
3 19 -113 0
4 19 -89 0
1 19 -71 0
10 19 -28 0
2 19 33 0
2 19 61 0
4 19 85 0
5 19 106 0
4 19 114 0
5 20 -74 0
8 20 -60 0
6 20 -48 0
2 20 -36 0
9 20 38 0
5 20 103 0
5 20 114 0
7 21 -119 0
9 21 -113 0
6 21 -84 0
10 21 -82 0
6 21 26 0
7 21 32 0
9 21 44 0
5 21 45 0
7 21 85 0
3 21 106 0
6 22 -108 0
6 22 -97 0
2 22 -90 0
1 22 -81 0
6 22 -58 0
5 22 -42 0
5 22 90 0
7 22 107 0
4 22 109 0
6 23 -92 0
7 23 -90 0
7 23 -87 0
1 23 -78 0
1 23 -69 0
2 23 35 0
8 23 54 0
6 23 58 0
3 23 60 0
7 23 64 0
1 23 73 0
7 23 100 0
4 24 -75 0
9 24 -48 0
4 24 -39 0
3 24 112 0
6 24 113 0
10 24 115 0
2 24 116 0
9 24 119 0
7 25 -33 0
4 25 -28 0
5 25 -27 0
3 25 29 0
5 25 43 0
5 25 81 0
9 25 88 0
9 25 109 0
9 25 110 0
5 26 -118 0
3 26 -111 0
4 26 -109 0
3 26 -90 0
10 26 -59 0
4 26 -55 0
3 26 -38 0
2 26 55 0
3 26 79 0
8 27 -113 0
4 27 -48 0
9 27 69 0
8 27 77 0
1 28 -53 0
2 28 -29 0
8 28 30 0
4 28 48 0
4 28 81 0
3 28 118 0
4 29 -105 0
5 29 -52 0
3 29 46 0
10 29 53 0
8 29 65 0
6 29 67 0
3 29 95 0
3 29 97 0
1 29 112 0
2 30 -105 0
2 30 -92 0
9 30 -34 0
6 30 53 0
5 30 63 0
3 31 -110 0
8 31 -35 0
4 31 42 0
7 31 48 0
9 31 55 0
5 32 -117 0
8 32 -103 0
7 32 -87 0
8 32 -66 0
7 32 -62 0
6 32 40 0
8 32 103 0
8 32 110 0
3 33 -56 0
2 33 -55 0
2 33 65 0
6 33 92 0
5 33 93 0
7 34 -112 0
7 34 -105 0
5 34 -88 0
5 34 -72 0
4 34 -68 0
7 34 -63 0
7 34 -62 0
4 34 99 0
7 35 -107 0
8 35 -84 0
3 35 -37 0
3 35 67 0
3 35 104 0
5 35 106 0
10 35 115 0
6 36 -86 0
2 36 -59 0
9 36 -51 0
1 36 -43 0
9 36 43 0
7 36 45 0
8 36 52 0
6 36 58 0
2 36 68 0
6 36 74 0
4 36 96 0
5 37 -97 0
7 37 57 0
6 37 62 0
9 37 74 0
3 37 91 0
2 37 94 0
6 38 -75 0
6 38 -69 0
6 38 47 0
9 38 52 0
3 38 55 0
3 38 99 0
3 38 101 0
9 39 -59 0
10 39 -53 0
5 39 51 0
2 39 78 0
3 39 104 0
9 40 -112 0
2 40 -103 0
8 40 -87 0
1 40 -72 0
1 40 66 0
8 40 74 0
10 40 87 0
7 40 91 0
6 40 100 0
6 41 -97 0
8 41 -52 0
2 41 51 0
9 41 57 0
2 41 89 0
9 41 93 0
5 41 111 0
1 42 -101 0
1 42 -91 0
6 42 54 0
7 42 95 0
7 42 96 0
2 43 -99 0
6 43 -95 0
9 43 -57 0
3 43 -49 0
8 43 79 0
8 43 89 0
3 43 95 0
3 43 113 0
10 44 -70 0
5 44 48 0
2 44 52 0
2 44 80 0
3 44 81 0
3 44 91 0
2 45 -119 0
10 45 -109 0
3 45 -100 0
7 45 -82 0
6 45 -67 0
8 45 -62 0
5 45 52 0
7 45 91 0
7 45 94 0
6 45 110 0
6 45 113 0
2 45 114 0
7 45 118 0
7 46 -100 0
7 46 -79 0
4 46 -55 0
3 46 61 0
8 46 83 0
8 46 105 0
2 47 -109 0
1 47 -98 0
6 47 -77 0
9 47 -75 0
4 47 -69 0
8 47 -68 0
9 47 -60 0
7 47 49 0
10 47 54 0
10 47 84 0
9 47 95 0
3 47 103 0
2 48 -98 0
9 48 -89 0
4 48 -78 0
8 48 -57 0
5 48 -54 0
2 48 69 0
3 48 82 0
2 48 94 0
8 49 -113 0
8 49 -92 0
7 49 -64 0
9 49 58 0
5 49 59 0
4 49 79 0
7 49 91 0
8 49 115 0
6 50 -115 0
5 50 -94 0
6 50 53 0
7 50 66 0
5 50 71 0
3 51 -118 0
7 51 -90 0
8 51 72 0
10 51 74 0
6 51 86 0
5 51 112 0
10 52 -115 0
6 52 -81 0
5 52 -77 0
2 52 -72 0
6 52 -69 0
3 52 -55 0
5 52 77 0
4 52 80 0
7 52 106 0
6 52 114 0
6 53 -105 0
8 53 -96 0
5 53 -62 0
5 53 70 0
5 53 82 0
4 53 108 0
9 53 111 0
8 53 112 0
10 54 -100 0
7 54 -96 0
4 54 -77 0
5 54 108 0
3 54 118 0
2 55 -117 0
9 55 -111 0
5 55 -110 0
8 55 -107 0
7 55 -72 0
4 55 74 0
3 55 85 0
3 55 109 0
4 56 -110 0
8 56 -109 0
6 56 -69 0
5 56 -68 0
4 56 66 0
9 56 86 0
10 57 -94 0
8 57 -64 0
6 57 -60 0
6 57 71 0
4 57 72 0
4 57 86 0
10 57 103 0
8 57 105 0
8 58 -84 0
4 58 -69 0
7 58 94 0
6 59 -107 0
4 59 -94 0
4 59 -93 0
10 59 62 0
8 59 70 0
6 59 92 0
2 59 93 0
7 59 111 0
9 59 113 0
8 60 99 0
4 60 103 0
4 60 109 0
2 61 -77 0
6 61 -75 0
7 61 -74 0
9 61 70 0
3 61 109 0
2 62 -112 0
3 62 -109 0
2 62 -72 0
2 62 -63 0
9 63 -116 0
6 63 -98 0
7 63 -90 0
3 63 91 0
9 63 102 0
6 64 105 0
10 65 -106 0
7 65 -100 0
9 65 -82 0
7 65 -73 0
4 65 91 0
2 65 104 0
9 65 105 0
3 66 -117 0
9 66 -89 0
5 66 67 0
4 66 85 0
6 66 86 0
4 66 89 0
2 66 90 0
9 67 -101 0
7 67 -80 0
3 67 -76 0
5 67 94 0
4 68 -112 0
1 68 -109 0
7 68 -94 0
5 68 -77 0
3 68 97 0
8 68 101 0
5 68 112 0
3 68 118 0
4 68 119 0
2 69 73 0
5 69 97 0
3 70 -98 0
7 70 85 0
5 70 94 0
9 70 107 0
6 71 -111 0
2 71 -109 0
3 71 80 0
7 71 91 0
1 71 114 0
5 72 -100 0
6 72 -84 0
5 72 76 0
8 72 86 0
2 72 110 0
8 73 -110 0
9 73 -87 0
1 73 -85 0
6 73 96 0
2 73 112 0
6 74 -97 0
9 74 -96 0
2 74 -76 0
3 74 89 0
4 74 107 0
5 75 99 0
9 75 106 0
8 75 115 0
6 76 -113 0
3 76 -82 0
9 76 78 0
1 76 83 0
5 76 104 0
6 76 113 0
5 77 92 0
5 77 113 0
2 77 120 0
6 78 -106 0
6 78 89 0
8 78 93 0
6 78 99 0
2 79 -120 0
5 79 -104 0
1 79 -98 0
9 79 80 0
5 79 117 0
9 80 -105 0
8 80 -97 0
6 80 84 0
4 80 92 0
10 80 94 0
1 81 -101 0
3 82 -117 0
2 82 -102 0
3 82 -101 0
6 82 -87 0
6 82 97 0
2 83 -113 0
4 83 109 0
2 84 -112 0
5 84 -111 0
3 84 -101 0
3 84 96 0
9 84 108 0
8 85 -113 0
7 85 -97 0
4 85 -93 0
9 85 104 0
3 87 -119 0
9 87 -92 0
7 87 98 0
8 87 111 0
10 87 113 0
2 87 118 0
9 88 -109 0
9 88 -92 0
6 88 108 0
7 89 -95 0
7 89 94 0
2 89 101 0
2 89 110 0
7 90 -103 0
2 90 -100 0
4 90 97 0
8 90 108 0
4 92 -105 0
8 92 96 0
3 93 -117 0
5 93 -105 0
2 93 99 0
4 93 117 0
8 94 -108 0
4 94 -98 0
6 94 105 0
7 95 -116 0
2 95 -96 0
3 96 -109 0
10 96 -107 0
10 96 109 0
5 97 -107 0
9 97 110 0
7 98 -102 0
4 98 105 0
9 99 102 0
8 100 -113 0
3 100 -108 0
7 100 -107 0
4 100 109 0
9 101 -102 0
5 101 109 0
5 101 112 0
10 102 -116 0
1 102 -106 0
6 102 105 0
3 104 -112 0
8 104 105 0
9 105 106 0
2 105 114 0
1 106 -114 0
3 107 -109 0
3 109 116 0
5 110 -114 0
2 111 115 0
6 113 115 0
1 114 -118 0
8 118 -120 0
